NAME : cgl_47.5992.tour
COMMENT : Length = 5992
COMMENT : Found by LKH-3 [Keld Helsgaun] Fri Nov  8 19:20:30 2024
TYPE : TOUR
DIMENSION : 47
TOUR_SECTION
38
41
42
43
44
45
46
47
1
5
4
3
2
7
6
8
9
31
32
29
30
27
28
26
12
24
25
20
18
15
19
22
13
14
21
11
23
17
16
10
33
34
37
36
35
40
39
-1
EOF
